
Gurobi 8.1.1 (mac64, Python) logging started Wed Mar 11 12:33:45 2020

Academic license - for non-commercial use only

Gurobi 8.1.1 (mac64, Python) logging started Wed Mar 11 12:37:01 2020

Academic license - for non-commercial use only

Gurobi 8.1.1 (mac64, Python) logging started Wed Mar 11 12:37:38 2020

Academic license - for non-commercial use only

Gurobi 8.1.1 (mac64, Python) logging started Wed Mar 11 12:52:53 2020

Academic license - for non-commercial use only

Gurobi 8.1.1 (mac64, Python) logging started Wed Mar 11 12:53:43 2020

Academic license - for non-commercial use only

Gurobi 8.1.1 (mac64, Python) logging started Wed Mar 11 12:54:22 2020

Academic license - for non-commercial use only

Gurobi 8.1.1 (mac64, Python) logging started Wed Mar 11 12:56:04 2020

Academic license - for non-commercial use only

Gurobi 8.1.1 (mac64, Python) logging started Wed Mar 11 12:59:34 2020

Academic license - for non-commercial use only

Gurobi 8.1.1 (mac64, Python) logging started Wed Mar 11 13:00:43 2020

Academic license - for non-commercial use only

Gurobi 8.1.1 (mac64, Python) logging started Wed Mar 11 13:03:02 2020

Academic license - for non-commercial use only

Gurobi 8.1.1 (mac64, Python) logging started Wed Mar 11 13:09:40 2020

Academic license - for non-commercial use only

Gurobi 8.1.1 (mac64, Python) logging started Wed Mar 11 13:10:15 2020

Academic license - for non-commercial use only

Gurobi 8.1.1 (mac64, Python) logging started Wed Mar 11 18:22:02 2020

Academic license - for non-commercial use only

Gurobi 8.1.1 (mac64, Python) logging started Wed Mar 11 19:39:54 2020

Academic license - for non-commercial use only

Gurobi 8.1.1 (mac64, Python) logging started Wed Mar 11 19:40:17 2020

Academic license - for non-commercial use only

Gurobi 8.1.1 (mac64, Python) logging started Wed Mar 11 19:40:46 2020

Academic license - for non-commercial use only

Gurobi 8.1.1 (mac64, Python) logging started Wed Mar 11 19:52:14 2020

Academic license - for non-commercial use only

Gurobi 8.1.1 (mac64, Python) logging started Wed Mar 11 20:03:13 2020

Academic license - for non-commercial use only

Gurobi 8.1.1 (mac64, Python) logging started Wed Mar 11 20:15:01 2020

Academic license - for non-commercial use only

Gurobi 8.1.1 (mac64, Python) logging started Wed Mar 11 20:21:14 2020

Academic license - for non-commercial use only

Gurobi 8.1.1 (mac64, Python) logging started Wed Mar 11 20:22:45 2020

Academic license - for non-commercial use only

Gurobi 8.1.1 (mac64, Python) logging started Wed Mar 11 20:23:52 2020

Academic license - for non-commercial use only

Gurobi 8.1.1 (mac64, Python) logging started Wed Mar 11 20:24:14 2020

Academic license - for non-commercial use only

Gurobi 8.1.1 (mac64, Python) logging started Wed Mar 11 20:28:17 2020

Academic license - for non-commercial use only

Gurobi 8.1.1 (mac64, Python) logging started Wed Mar 11 20:31:47 2020

Academic license - for non-commercial use only

Gurobi 8.1.1 (mac64, Python) logging started Wed Mar 11 22:01:04 2020

Academic license - for non-commercial use only

Gurobi 8.1.1 (mac64, Python) logging started Wed Mar 11 22:14:44 2020

Academic license - for non-commercial use only

Gurobi 8.1.1 (mac64, Python) logging started Wed Mar 11 22:25:07 2020

Academic license - for non-commercial use only

Gurobi 8.1.1 (mac64, Python) logging started Wed Mar 11 22:25:31 2020

Academic license - for non-commercial use only

Gurobi 8.1.1 (mac64, Python) logging started Wed Mar 11 22:33:25 2020

Academic license - for non-commercial use only

Gurobi 8.1.1 (mac64, Python) logging started Wed Mar 11 22:38:53 2020

Academic license - for non-commercial use only
Warning for adding constraints: zero or small (< 1e-13) coefficients, ignored
Warning for adding constraints: zero or small (< 1e-13) coefficients, ignored
Warning for adding constraints: zero or small (< 1e-13) coefficients, ignored
Warning for adding constraints: zero or small (< 1e-13) coefficients, ignored

Gurobi 8.1.1 (mac64, Python) logging started Wed Mar 11 22:39:08 2020

Academic license - for non-commercial use only
Warning for adding constraints: zero or small (< 1e-13) coefficients, ignored
Warning for adding constraints: zero or small (< 1e-13) coefficients, ignored
Warning for adding constraints: zero or small (< 1e-13) coefficients, ignored
Warning for adding constraints: zero or small (< 1e-13) coefficients, ignored
Warning for adding constraints: zero or small (< 1e-13) coefficients, ignored

Gurobi 8.1.1 (mac64, Python) logging started Wed Mar 11 22:40:14 2020

Academic license - for non-commercial use only

Gurobi 8.1.1 (mac64, Python) logging started Wed Mar 11 22:41:14 2020

Academic license - for non-commercial use only

Gurobi 8.1.1 (mac64, Python) logging started Wed Mar 11 22:50:12 2020

Academic license - for non-commercial use only

Gurobi 8.1.1 (mac64, Python) logging started Wed Mar 11 23:04:58 2020

Academic license - for non-commercial use only

Gurobi 8.1.1 (mac64, Python) logging started Wed Mar 11 23:14:53 2020

Academic license - for non-commercial use only

Gurobi 8.1.1 (mac64, Python) logging started Wed Mar 11 23:15:06 2020

Academic license - for non-commercial use only

Gurobi 8.1.1 (mac64, Python) logging started Sat Apr 18 14:54:59 2020

Academic license - for non-commercial use only

Gurobi 8.1.1 (mac64, Python) logging started Sat Apr 18 14:56:04 2020

Academic license - for non-commercial use only

Gurobi 8.1.1 (mac64, Python) logging started Sat Apr 18 15:01:58 2020

Academic license - for non-commercial use only

Gurobi 8.1.1 (mac64, Python) logging started Sat Apr 18 15:03:38 2020

Academic license - for non-commercial use only

Gurobi 8.1.1 (mac64, Python) logging started Sat Apr 18 16:02:37 2020

Academic license - for non-commercial use only

Gurobi 8.1.1 (mac64, Python) logging started Sat Apr 18 17:39:23 2020

Academic license - for non-commercial use only

Gurobi 8.1.1 (mac64, Python) logging started Sat Apr 18 17:44:05 2020

Academic license - for non-commercial use only

Gurobi 8.1.1 (mac64, Python) logging started Sat Apr 18 17:44:29 2020

Academic license - for non-commercial use only

Gurobi 8.1.1 (mac64, Python) logging started Sat Apr 18 17:49:48 2020

Academic license - for non-commercial use only

Gurobi 8.1.1 (mac64, Python) logging started Sat Apr 18 17:49:54 2020

Academic license - for non-commercial use only

Gurobi 8.1.1 (mac64, Python) logging started Tue Apr 21 18:49:34 2020

Academic license - for non-commercial use only

Gurobi 8.1.1 (mac64, Python) logging started Tue Apr 21 18:56:13 2020

Academic license - for non-commercial use only

Gurobi 8.1.1 (mac64, Python) logging started Tue Apr 21 18:58:44 2020

Academic license - for non-commercial use only

Gurobi 8.1.1 (mac64, Python) logging started Tue Apr 21 19:00:14 2020

Academic license - for non-commercial use only

Gurobi 8.1.1 (mac64, Python) logging started Tue Apr 21 19:01:01 2020

Academic license - for non-commercial use only

Gurobi 8.1.1 (mac64, Python) logging started Tue Apr 21 19:04:33 2020

Academic license - for non-commercial use only

Gurobi 8.1.1 (mac64, Python) logging started Tue Apr 21 19:05:07 2020

Academic license - for non-commercial use only

Gurobi 8.1.1 (mac64, Python) logging started Tue Apr 21 19:05:49 2020

Academic license - for non-commercial use only

Gurobi 8.1.1 (mac64, Python) logging started Tue Apr 21 19:07:23 2020

Academic license - for non-commercial use only

Gurobi 8.1.1 (mac64, Python) logging started Wed Apr 22 16:19:59 2020

Academic license - for non-commercial use only

Gurobi 8.1.1 (mac64, Python) logging started Wed Apr 22 16:23:01 2020

Academic license - for non-commercial use only

Gurobi 8.1.1 (mac64, Python) logging started Wed Apr 22 16:25:46 2020

Academic license - for non-commercial use only

Gurobi 8.1.1 (mac64, Python) logging started Wed Apr 22 16:26:36 2020

Academic license - for non-commercial use only

Gurobi 8.1.1 (mac64, Python) logging started Wed Apr 22 16:39:20 2020

Academic license - for non-commercial use only

Gurobi 8.1.1 (mac64, Python) logging started Wed Apr 22 19:15:59 2020

Academic license - for non-commercial use only

Gurobi 8.1.1 (mac64, Python) logging started Thu Apr 23 09:21:40 2020

Academic license - for non-commercial use only

Gurobi 8.1.1 (mac64, Python) logging started Mon Apr 27 22:08:59 2020

Academic license - for non-commercial use only

Gurobi 8.1.1 (mac64, Python) logging started Mon Apr 27 22:13:24 2020

Academic license - for non-commercial use only

Gurobi 8.1.1 (mac64, Python) logging started Fri May 22 00:21:17 2020

Academic license - for non-commercial use only

Gurobi 8.1.1 (mac64, Python) logging started Fri May 22 08:57:15 2020

Academic license - for non-commercial use only

Gurobi 8.1.1 (mac64, Python) logging started Sat May 23 15:38:31 2020

Academic license - for non-commercial use only

Gurobi 8.1.1 (mac64, Python) logging started Sun May 24 17:30:40 2020

Academic license - for non-commercial use only

Gurobi 8.1.1 (mac64, Python) logging started Tue May 26 19:52:51 2020

Academic license - for non-commercial use only

Gurobi 8.1.1 (mac64, Python) logging started Thu May 28 11:10:43 2020

Academic license - for non-commercial use only

Gurobi 8.1.1 (mac64, Python) logging started Wed Jun  3 15:23:00 2020

Academic license - for non-commercial use only

Gurobi 8.1.1 (mac64, Python) logging started Fri Jun 12 11:14:59 2020

Academic license - for non-commercial use only

Gurobi 8.1.1 (mac64, Python) logging started Fri Jun 12 11:26:17 2020

Academic license - for non-commercial use only

Gurobi 8.1.1 (mac64, Python) logging started Fri Jun 12 12:21:40 2020

Academic license - for non-commercial use only

Gurobi 8.1.1 (mac64, Python) logging started Sun Jun 14 01:10:08 2020

Academic license - for non-commercial use only

Gurobi 8.1.1 (mac64, Python) logging started Sun Jun 21 12:45:38 2020

Academic license - for non-commercial use only

Gurobi 8.1.1 (mac64, Python) logging started Tue Jun 23 08:23:36 2020

Academic license - for non-commercial use only

Gurobi 8.1.1 (mac64, Python) logging started Tue Jun 23 08:32:32 2020

Academic license - for non-commercial use only

Gurobi 8.1.1 (mac64, Python) logging started Wed Jun 24 20:06:58 2020

Academic license - for non-commercial use only

Gurobi 8.1.1 (mac64, Python) logging started Thu Jun 25 08:16:16 2020

Academic license - for non-commercial use only

Gurobi 8.1.1 (mac64, Python) logging started Wed Jul 15 18:50:28 2020

Academic license - for non-commercial use only

Gurobi 8.1.1 (mac64, Python) logging started Sat Aug  1 03:04:49 2020

Academic license - for non-commercial use only

Gurobi 8.1.1 (mac64, Python) logging started Wed Aug 12 11:17:35 2020

Academic license - for non-commercial use only

Gurobi 8.1.1 (mac64, Python) logging started Wed Aug 12 18:00:55 2020

Academic license - for non-commercial use only

Gurobi 8.1.1 (mac64, Python) logging started Sun Aug 16 09:00:16 2020

Academic license - for non-commercial use only

Gurobi 8.1.1 (mac64, Python) logging started Thu Aug 20 23:13:08 2020

Academic license - for non-commercial use only

Gurobi 8.1.1 (mac64, Python) logging started Fri Aug 21 10:37:36 2020

Academic license - for non-commercial use only

Gurobi 8.1.1 (mac64, Python) logging started Fri Aug 21 10:42:49 2020

Academic license - for non-commercial use only

Gurobi 8.1.1 (mac64, Python) logging started Fri Aug 21 10:50:22 2020

Academic license - for non-commercial use only

Gurobi 8.1.1 (mac64, Python) logging started Fri Aug 21 10:54:23 2020

Academic license - for non-commercial use only

Gurobi 8.1.1 (mac64, Python) logging started Fri Aug 21 21:09:49 2020

Academic license - for non-commercial use only

Gurobi 8.1.1 (mac64, Python) logging started Fri Aug 21 22:53:21 2020

Academic license - for non-commercial use only

Gurobi 8.1.1 (mac64, Python) logging started Fri Aug 21 22:54:47 2020

Academic license - for non-commercial use only

Gurobi 8.1.1 (mac64, Python) logging started Sat Aug 22 18:24:54 2020

Academic license - for non-commercial use only

Gurobi 8.1.1 (mac64, Python) logging started Sat Aug 22 18:32:37 2020

Academic license - for non-commercial use only

Gurobi 8.1.1 (mac64, Python) logging started Sat Aug 22 18:38:32 2020

Academic license - for non-commercial use only

Gurobi 8.1.1 (mac64, Python) logging started Sat Aug 22 18:41:43 2020

Academic license - for non-commercial use only

Gurobi 8.1.1 (mac64, Python) logging started Sat Aug 22 18:42:00 2020

Academic license - for non-commercial use only
